param n := 38;
param c := 100;
param w := 
1 100
2 99
3 97
4 93
5 90
6 90
7 90
8 87
9 86
10 81
11 80
12 77
13 72
14 72
15 68
16 66
17 65
18 62
19 57
20 54
21 51
22 49
23 48
24 44
25 35
26 34
27 25
28 21
29 20
30 9
31 8
32 8
33 8
34 7
35 7
36 7
37 5
38 3
;